Route #1: 25 38 35 31 41 12 24 
Route #2: 15 32 36 2 45 7 
Route #3: 27 30 44 19 18 20 28 
Route #4: 29 8 14 17 5 43 10 
Route #5: 39 3 26 13 40 37 23 16 
Route #6: 4 11 9 42 34 22 6 21 33 
cost 985.51
